; benchmark generated from python API
(set-info :status unknown)
(declare-fun x_month () Int)
(declare-fun x_year () Int)
(declare-fun x_day () Int)
(assert
 (let (($x631 (or (= x_month 4) (= x_month 6) (= x_month 9) (= x_month 11))))
 (let ((?x617 (ite $x631 30 31)))
 (let (($x595 (= (mod x_year 400) 0)))
 (let (($x591 (= (mod x_year 4) 0)))
 (let ((?x597 (ite (or (and $x591 (and (distinct (mod x_year 100) 0) true)) $x595) 29 28)))
 (let (($x601 (= x_month 2)))
 (let (($x616 (<= x_day (ite $x601 ?x597 ?x617))))
 (let (($x590 (>= x_day 1)))
 (let (($x607 (<= x_month 2)))
 (let (($x632 (>= x_month 1)))
 (let (($x406 (= x_year 2100)))
 (let (($x473 (<= x_month 12)))
 (let (($x630 (<= x_year 2099)))
 (let (($x628 (>= x_year 1901)))
 (or (and (= x_year 1900) (>= x_month 3) $x473 $x590 $x616) (and $x628 $x630 $x632 $x473 $x590 $x616) (and $x406 $x632 $x607 $x590 $x616)))))))))))))))))
(assert
 (let (($x669 (= x_year 2020)))
 (let (($x678 (and $x669 (or (> x_month 1) (and (= x_month 1) (>= x_day 1))))))
 (or (> x_year 2020) $x678))))
(assert
 (let (($x669 (= x_year 2020)))
 (let (($x666 (and $x669 (or (< x_month 2) (and (= x_month 2) (<= x_day 28))))))
 (or (< x_year 2020) $x666))))
(assert
 (let ((?x898 (+ (mod (- (+ x_month (+ (* 0 12) 0)) 1) 12) 1)))
(let ((?x907 (ite (or (= ?x898 4) (= ?x898 6) (= ?x898 9) (= ?x898 11)) 30 31)))
(let ((?x888 (+ 0 (div (- (+ x_month (+ (* 0 12) 0)) 1) 12))))
(let ((?x899 (+ x_year ?x888)))
(let (($x893 (or (and (= (mod ?x899 4) 0) (and (distinct (mod ?x899 100) 0) true)) (= (mod ?x899 400) 0))))
(let ((?x908 (ite (= ?x898 2) (ite $x893 29 28) ?x907)))
(let (($x421 (< x_day 1)))
(let ((?x942 (ite $x421 1 (ite (> x_day ?x908) ?x908 x_day))))
(let ((?x938 (ite (< ?x942 1) 1 (ite (> ?x942 ?x908) ?x908 ?x942))))
(let ((?x911 (ite (= 2 ?x898) (ite $x893 31 31) (ite (= 1 ?x898) (ite $x893 0 0) 0))))
(let ((?x931 (ite (= 4 ?x898) (ite $x893 91 90) (ite (= 3 ?x898) (ite $x893 60 59) ?x911))))
(let ((?x943 (ite (= 6 ?x898) (ite $x893 152 151) (ite (= 5 ?x898) (ite $x893 121 120) ?x931))))
(let ((?x974 (ite (= 8 ?x898) (ite $x893 213 212) (ite (= 7 ?x898) (ite $x893 182 181) ?x943))))
(let ((?x965 (ite (= 10 ?x898) (ite $x893 274 273) (ite (= 9 ?x898) (ite $x893 244 243) ?x974))))
(let ((?x956 (ite (= 12 ?x898) (ite $x893 335 334) (ite (= 11 ?x898) (ite $x893 305 304) ?x965))))
(let ((?x915 (- (+ (* 365 (- ?x899 1)) (div (- ?x899 1) 4)) (div (- ?x899 1) 100))))
(let ((?x950 (- (+ (+ (+ ?x915 (div (- ?x899 1) 400)) ?x956) (- ?x938 1)) 730179)))
(let ((?x947 (+ (+ ?x950 365) 730179)))
(let ((?x944 (mod ?x947 146097)))
(let ((?x945 (div ?x944 36524)))
(let ((?x951 (ite (<= 4 ?x945) 3 ?x945)))
(let ((?x957 (- ?x944 (* ?x951 36524))))
(let ((?x963 (mod ?x957 1461)))
(let ((?x966 (div ?x963 365)))
(let ((?x972 (ite (<= 4 ?x966) 3 ?x966)))
(let ((?x529 (+ (+ (* (div ?x947 146097) 400) (* ?x951 100)) (* (div ?x957 1461) 4))))
(let ((?x525 (+ (+ ?x529 ?x972) 1)))
(let (($x542 (or (and (= (mod ?x525 4) 0) (and (distinct (mod ?x525 100) 0) true)) (= (mod ?x525 400) 0))))
(let ((?x978 (- ?x963 (* ?x972 365))))
(let ((?x552 (ite $x542 31 31)))
(let (($x489 (>= ?x978 ?x552)))
(let ((?x518 (ite $x489 (+ (- ?x978 ?x552) 1) (+ (- ?x978 (ite $x542 0 0)) 1))))
(let ((?x557 (ite $x542 60 59)))
(let (($x491 (>= ?x978 ?x557)))
(let ((?x562 (ite $x542 91 90)))
(let (($x501 (>= ?x978 ?x562)))
(let ((?x486 (ite $x501 (+ (- ?x978 ?x562) 1) (ite $x491 (+ (- ?x978 ?x557) 1) ?x518))))
(let ((?x567 (ite $x542 121 120)))
(let (($x495 (>= ?x978 ?x567)))
(let ((?x572 (ite $x542 152 151)))
(let (($x504 (>= ?x978 ?x572)))
(let ((?x496 (ite $x504 (+ (- ?x978 ?x572) 1) (ite $x495 (+ (- ?x978 ?x567) 1) ?x486))))
(let ((?x577 (ite $x542 182 181)))
(let (($x507 (>= ?x978 ?x577)))
(let ((?x578 (ite $x542 213 212)))
(let (($x403 (>= ?x978 ?x578)))
(let ((?x987 (ite $x403 (+ (- ?x978 ?x578) 1) (ite $x507 (+ (- ?x978 ?x577) 1) ?x496))))
(let ((?x505 (ite $x542 244 243)))
(let (($x475 (>= ?x978 ?x505)))
(let ((?x488 (ite $x542 274 273)))
(let (($x479 (>= ?x978 ?x488)))
(let ((?x995 (ite $x479 (+ (- ?x978 ?x488) 1) (ite $x475 (+ (- ?x978 ?x505) 1) ?x987))))
(let ((?x497 (ite $x542 305 304)))
(let (($x482 (>= ?x978 ?x497)))
(let ((?x498 (ite $x542 335 334)))
(let (($x485 (>= ?x978 ?x498)))
(let ((?x1001 (ite $x485 (+ (- ?x978 ?x498) 1) (ite $x482 (+ (- ?x978 ?x497) 1) ?x995))))
(let (($x918 (= 0 365)))
(let ((?x635 (+ (mod (- (+ x_month (+ (* 1 12) 0)) 1) 12) 1)))
(let ((?x427 (ite (or (= ?x635 4) (= ?x635 6) (= ?x635 9) (= ?x635 11)) 30 31)))
(let ((?x620 (+ 0 (div (- (+ x_month (+ (* 1 12) 0)) 1) 12))))
(let ((?x619 (+ x_year ?x620)))
(let (($x423 (or (and (= (mod ?x619 4) 0) (and (distinct (mod ?x619 100) 0) true)) (= (mod ?x619 400) 0))))
(let ((?x428 (ite (= ?x635 2) (ite $x423 29 28) ?x427)))
(let ((?x440 (ite $x421 1 (ite (> x_day ?x428) ?x428 x_day))))
(let ((?x433 (ite (< ?x440 1) 1 (ite (> ?x440 ?x428) ?x428 ?x440))))
(let ((?x715 (ite (= 2 ?x635) (ite $x423 31 31) (ite (= 1 ?x635) (ite $x423 0 0) 0))))
(let ((?x710 (ite (= 4 ?x635) (ite $x423 91 90) (ite (= 3 ?x635) (ite $x423 60 59) ?x715))))
(let ((?x705 (ite (= 6 ?x635) (ite $x423 152 151) (ite (= 5 ?x635) (ite $x423 121 120) ?x710))))
(let ((?x724 (ite (= 8 ?x635) (ite $x423 213 212) (ite (= 7 ?x635) (ite $x423 182 181) ?x705))))
(let ((?x450 (ite (= 10 ?x635) (ite $x423 274 273) (ite (= 9 ?x635) (ite $x423 244 243) ?x724))))
(let ((?x697 (ite (= 12 ?x635) (ite $x423 335 334) (ite (= 11 ?x635) (ite $x423 305 304) ?x450))))
(let ((?x694 (- (+ (* 365 (- ?x619 1)) (div (- ?x619 1) 4)) (div (- ?x619 1) 100))))
(let ((?x461 (- (+ (+ (+ ?x694 (div (- ?x619 1) 400)) ?x697) (- ?x433 1)) 730179)))
(let ((?x458 (+ (+ ?x461 0) 730179)))
(let ((?x459 (mod ?x458 146097)))
(let ((?x462 (div ?x459 36524)))
(let ((?x743 (ite (<= 4 ?x462) 3 ?x462)))
(let ((?x731 (- ?x459 (* ?x743 36524))))
(let ((?x470 (mod ?x731 1461)))
(let ((?x448 (div ?x470 365)))
(let ((?x453 (ite (<= 4 ?x448) 3 ?x448)))
(let ((?x803 (+ (+ (* (div ?x458 146097) 400) (* ?x743 100)) (* (div ?x731 1461) 4))))
(let ((?x831 (+ (+ ?x803 ?x453) 1)))
(let (($x802 (or (and (= (mod ?x831 4) 0) (and (distinct (mod ?x831 100) 0) true)) (= (mod ?x831 400) 0))))
(let ((?x603 (- ?x470 (* ?x453 365))))
(let ((?x872 (ite $x802 31 31)))
(let (($x870 (>= ?x603 ?x872)))
(let ((?x856 (ite $x870 (+ (- ?x603 ?x872) 1) (+ (- ?x603 (ite $x802 0 0)) 1))))
(let ((?x807 (ite $x802 60 59)))
(let (($x867 (>= ?x603 ?x807)))
(let ((?x808 (ite $x802 91 90)))
(let (($x864 (>= ?x603 ?x808)))
(let ((?x874 (ite $x864 (+ (- ?x603 ?x808) 1) (ite $x867 (+ (- ?x603 ?x807) 1) ?x856))))
(let ((?x809 (ite $x802 121 120)))
(let (($x861 (>= ?x603 ?x809)))
(let ((?x810 (ite $x802 152 151)))
(let (($x858 (>= ?x603 ?x810)))
(let ((?x817 (ite $x858 (+ (- ?x603 ?x810) 1) (ite $x861 (+ (- ?x603 ?x809) 1) ?x874))))
(let ((?x811 (ite $x802 182 181)))
(let (($x855 (>= ?x603 ?x811)))
(let ((?x812 (ite $x802 213 212)))
(let (($x852 (>= ?x603 ?x812)))
(let ((?x824 (ite $x852 (+ (- ?x603 ?x812) 1) (ite $x855 (+ (- ?x603 ?x811) 1) ?x817))))
(let ((?x813 (ite $x802 244 243)))
(let (($x849 (>= ?x603 ?x813)))
(let ((?x814 (ite $x802 274 273)))
(let (($x846 (>= ?x603 ?x814)))
(let ((?x830 (ite $x846 (+ (- ?x603 ?x814) 1) (ite $x849 (+ (- ?x603 ?x813) 1) ?x824))))
(let ((?x873 (ite $x802 305 304)))
(let (($x843 (>= ?x603 ?x873)))
(let ((?x869 (ite $x802 335 334)))
(let (($x840 (>= ?x603 ?x869)))
(let ((?x881 (ite $x840 (+ (- ?x603 ?x869) 1) (ite $x843 (+ (- ?x603 ?x873) 1) ?x830))))
(let (($x692 (= 0 0)))
(let ((?x503 (ite $x495 5 (ite $x501 4 (ite $x491 3 (ite $x489 2 1))))))
(let ((?x513 (ite $x475 9 (ite $x403 8 (ite $x507 7 (ite $x504 6 ?x503))))))
(let ((?x514 (ite $x485 12 (ite $x482 11 (ite $x479 10 ?x513)))))
(let ((?x857 (ite $x861 5 (ite $x864 4 (ite $x867 3 (ite $x870 2 1))))))
(let ((?x845 (ite $x849 9 (ite $x852 8 (ite $x855 7 (ite $x858 6 ?x857))))))
(let (($x645 (= (ite $x692 ?x635 (ite $x840 12 (ite $x843 11 (ite $x846 10 ?x845)))) (ite $x918 ?x898 ?x514))))
(let (($x1005 (and (= (ite $x692 ?x619 ?x831) (ite $x918 ?x899 ?x525)) $x645 (= (ite $x692 ?x433 ?x881) (ite $x918 ?x938 ?x1001)))))
(not $x1005))))))))))))))))))))))))))))))))))))))))))))))))))))))))))))))))))))))))))))))))))))))))))))))))))))))))))))))))))))))))))))
(check-sat)
